c User generated cnf file
p cnf 13 31
10 -12 12 0 
11 -11 13 0 
11 9 -2 0 
9 -13 11 0 
2 5 -5 0 
9 12 -7 0 
12 -10 2 0 
1 -7 6 0 
9 4 -3 0 
2 -2 11 0 
3 3 -7 0 
11 -9 8 0 
7 11 -10 0 
13 -10 6 0 
13 -1 2 0 
7 -5 10 0 
12 8 -9 0 
5 5 -8 0 
13 -13 9 0 
8 4 -13 0 
9 -6 5 0 
13 -6 9 0 
12 1 -12 0 
13 7 -3 0 
12 7 -13 0 
9 5 -13 0 
7 -8 4 0 
5 -3 7 0 
8 9 -2 0 
11 10 -1 0 
2 -12 8 0 
